\ LP format - for model browsing. Use MPS format to capture full model detail.
Minimize
  0 B12(0) + 0 B13(0) + 0 B18(0) + 0 B19(0) + 0 B24(0) + 0 B25(0) + 0 B26(0)
   + 0 B27(0) + 0 B30(0) + 0 B31(0) + 0 B32(0) + 0 B33(0) + 0 B36(0)
   + 0 B37(0) + 0 B38(0) + 0 B39(0) + 0 B40(0) + 0 B41(0) + 0 B42(0)
   + 0 B43(0) + 0 B44(0) + 0 B45(0) + 0 B46(0) + 0 B47(0) + I60(1)
   + 0 B61(0) + 0 B62(0) + 0 B65(0) + 0 B66(0) + 0 B69(0) + 0 B70(0)
Subject To
 c0: B0(13) + B1(13) = 1
 c1: B2(13) + B3(13) = 1
 c2: B4(14) + B5(14) = 1
 c3: B6(14) + B7(14) = 1
 c4: B8(13) + B9(13) = 1
 c5: B10(13) + B11(13) = 1
 c6: - 71000 B0(13) + I48(14) <= 0
 c7: - 71000 B1(13) + I49(14) <= 0
 c8: - 71000 B2(13) + I50(17) <= 0
 c9: - 71000 B3(13) + I51(17) <= 0
 c10: - 71000 B4(14) + I52(14) <= 0
 c11: - 71000 B5(14) + I53(14) <= 0
 c12: - 71000 B6(14) + I54(17) <= 0
 c13: - 71000 B7(14) + I55(17) <= 0
 c14: - 71000 B8(13) + I56(14) <= 0
 c15: - 71000 B9(13) + I57(14) <= 0
 c16: - 71000 B10(13) + I58(17) <= 0
 c17: - 71000 B11(13) + I59(17) <= 0
 c18: - 43 B0(13) - 36 B1(13) - I48(14) - I49(14) + I50(17) + I51(17) >= 0
 c19: - 71043 B0(13) - 36 B1(13) - 71000 B2(13) - I48(14) - I49(14)
   + I50(17) + I51(17) >= -141997
 c20: - 43 B0(13) - 71036 B1(13) - 71000 B3(13) - I48(14) - I49(14)
   + I50(17) + I51(17) >= -141995
 c21: - 34 B4(14) - 53 B5(14) - I52(14) - I53(14) + I54(17) + I55(17) >= 0
 c22: - 71034 B4(14) - 53 B5(14) - 71000 B6(14) - I52(14) - I53(14)
   + I54(17) + I55(17) >= -141995
 c23: - 34 B4(14) - 71053 B5(14) - 71000 B7(14) - I52(14) - I53(14)
   + I54(17) + I55(17) >= -141997
 c24: - 21 B8(13) - 35 B9(13) - I56(14) - I57(14) + I58(17) + I59(17) >= 0
 c25: - 71021 B8(13) - 35 B9(13) - 71000 B10(13) - I56(14) - I57(14)
   + I58(17) + I59(17) >= -141996
 c26: - 21 B8(13) - 71035 B9(13) - 71000 B11(13) - I56(14) - I57(14)
   + I58(17) + I59(17) >= -141997
 c27: - 71000 B0(13) - 71000 B4(14) - 71000 B14(4) + I48(14) - I52(14)
   >= -212963
 c28: - 71000 B0(13) - 71000 B4(14) + 71000 B14(4) - I48(14) + I52(14)
   >= -141953
 c29: - 71000 B1(13) - 71000 B5(14) - 71000 B14(4) + I49(14) - I53(14)
   >= -212943
 c30: - 71000 B1(13) - 71000 B5(14) + 71000 B14(4) - I49(14) + I53(14)
   >= -141961
 c31: - 71000 B0(13) - 71000 B6(14) - 71000 B15(4) + I48(14) - I54(17)
   >= -212960
 c32: - 71000 B0(13) - 71000 B6(14) + 71000 B15(4) - I48(14) + I54(17)
   >= -141953
 c33: - 71000 B1(13) - 71000 B7(14) - 71000 B15(4) + I49(14) - I55(17)
   >= -212976
 c34: - 71000 B1(13) - 71000 B7(14) + 71000 B15(4) - I49(14) + I55(17)
   >= -141961
 c35: - 71000 B0(13) - 71000 B8(13) - 71000 B16(4) + I48(14) - I56(14)
   >= -212975
 c36: - 71000 B0(13) - 71000 B8(13) + 71000 B16(4) - I48(14) + I56(14)
   >= -141954
 c37: - 71000 B1(13) - 71000 B9(13) - 71000 B16(4) + I49(14) - I57(14)
   >= -212961
 c38: - 71000 B1(13) - 71000 B9(13) + 71000 B16(4) - I49(14) + I57(14)
   >= -141961
 c39: - 71000 B0(13) - 71000 B10(13) - 71000 B17(4) + I48(14) - I58(17)
   >= -212954
 c40: - 71000 B0(13) - 71000 B10(13) + 71000 B17(4) - I48(14) + I58(17)
   >= -141953
 c41: - 71000 B1(13) - 71000 B11(13) - 71000 B17(4) + I49(14) - I59(17)
   >= -212959
 c42: - 71000 B1(13) - 71000 B11(13) + 71000 B17(4) - I49(14) + I59(17)
   >= -141961
 c43: - 71000 B2(13) - 71000 B4(14) - 71000 B20(4) + I50(17) - I52(14)
   >= -212962
 c44: - 71000 B2(13) - 71000 B4(14) + 71000 B20(4) - I50(17) + I52(14)
   >= -141932
 c45: - 71000 B3(13) - 71000 B5(14) - 71000 B20(4) + I51(17) - I53(14)
   >= -212944
 c46: - 71000 B3(13) - 71000 B5(14) + 71000 B20(4) - I51(17) + I53(14)
   >= -141926
 c47: - 71000 B2(13) - 71000 B6(14) - 71000 B21(4) + I50(17) - I54(17)
   >= -212961
 c48: - 71000 B2(13) - 71000 B6(14) + 71000 B21(4) - I50(17) + I54(17)
   >= -141933
 c49: - 71000 B3(13) - 71000 B7(14) - 71000 B21(4) + I51(17) - I55(17)
   >= -212976
 c50: - 71000 B3(13) - 71000 B7(14) + 71000 B21(4) - I51(17) + I55(17)
   >= -141924
 c51: - 71000 B2(13) - 71000 B8(13) - 71000 B22(4) + I50(17) - I56(14)
   >= -212976
 c52: - 71000 B2(13) - 71000 B8(13) + 71000 B22(4) - I50(17) + I56(14)
   >= -141933
 c53: - 71000 B3(13) - 71000 B9(13) - 71000 B22(4) + I51(17) - I57(14)
   >= -212960
 c54: - 71000 B3(13) - 71000 B9(13) + 71000 B22(4) - I51(17) + I57(14)
   >= -141925
 c55: - 71000 B2(13) - 71000 B10(13) - 71000 B23(4) + I50(17) - I58(17)
   >= -212952
 c56: - 71000 B2(13) - 71000 B10(13) + 71000 B23(4) - I50(17) + I58(17)
   >= -141932
 c57: - 71000 B3(13) - 71000 B11(13) - 71000 B23(4) + I51(17) - I59(17)
   >= -212959
 c58: - 71000 B3(13) - 71000 B11(13) + 71000 B23(4) - I51(17) + I59(17)
   >= -141926
 c59: - 71000 B4(14) - 71000 B8(13) - 71000 B28(4) + I52(14) - I56(14)
   >= -212976
 c60: - 71000 B4(14) - 71000 B8(13) + 71000 B28(4) - I52(14) + I56(14)
   >= -141962
 c61: - 71000 B5(14) - 71000 B9(13) - 71000 B28(4) + I53(14) - I57(14)
   >= -212961
 c62: - 71000 B5(14) - 71000 B9(13) + 71000 B28(4) - I53(14) + I57(14)
   >= -141944
 c63: - 71000 B4(14) - 71000 B10(13) - 71000 B29(4) + I52(14) - I58(17)
   >= -212954
 c64: - 71000 B4(14) - 71000 B10(13) + 71000 B29(4) - I52(14) + I58(17)
   >= -141963
 c65: - 71000 B5(14) - 71000 B11(13) - 71000 B29(4) + I53(14) - I59(17)
   >= -212959
 c66: - 71000 B5(14) - 71000 B11(13) + 71000 B29(4) - I53(14) + I59(17)
   >= -141944
 c67: - 71000 B6(14) - 71000 B8(13) - 71000 B34(4) + I54(17) - I56(14)
   >= -212975
 c68: - 71000 B6(14) - 71000 B8(13) + 71000 B34(4) - I54(17) + I56(14)
   >= -141961
 c69: - 71000 B7(14) - 71000 B9(13) - 71000 B34(4) + I55(17) - I57(14)
   >= -212960
 c70: - 71000 B7(14) - 71000 B9(13) + 71000 B34(4) - I55(17) + I57(14)
   >= -141975
 c71: - 71000 B6(14) - 71000 B10(13) - 71000 B35(4) + I54(17) - I58(17)
   >= -212953
 c72: - 71000 B6(14) - 71000 B10(13) + 71000 B35(4) - I54(17) + I58(17)
   >= -141961
 c73: - 71000 B7(14) - 71000 B11(13) - 71000 B35(4) + I55(17) - I59(17)
   >= -212959
 c74: - 71000 B7(14) - 71000 B11(13) + 71000 B35(4) - I55(17) + I59(17)
   >= -141976
 c75: I48(14) >= 0
 c76: I48(14) >= 0
 c77: I49(14) >= 0
 c78: I49(14) >= 0
 c79: I50(17) >= 0
 c80: I50(17) >= 0
 c81: I51(17) >= 0
 c82: I51(17) >= 0
 c83: - 10 B4(14) + I52(14) >= 0
 c84: I52(14) >= 0
 c85: - 10 B5(14) + I53(14) >= 0
 c86: I53(14) >= 0
 c87: - 10 B6(14) + I54(17) >= 0
 c88: I54(17) >= 0
 c89: - 10 B7(14) + I55(17) >= 0
 c90: I55(17) >= 0
 c91: I56(14) >= 0
 c92: I56(14) >= 0
 c93: I57(14) >= 0
 c94: I57(14) >= 0
 c95: I58(17) >= 0
 c96: I58(17) >= 0
 c97: I59(17) >= 0
 c98: I59(17) >= 0
 c99: 64 B2(13) + I50(17) - 71000 B63(3) >= -70966
 c100: 64 B2(13) + I50(17) - 71000 B63(3) <= 34
 c101: 71 B3(13) + I51(17) - 71000 B64(3) >= -70966
 c102: 71 B3(13) + I51(17) - 71000 B64(3) <= 34
 c103: 36 B6(14) + I54(17) - 71000 B67(3) >= -70969
 c104: 36 B6(14) + I54(17) - 71000 B67(3) <= 31
 c105: 21 B7(14) + I55(17) - 71000 B68(3) >= -70969
 c106: 21 B7(14) + I55(17) - 71000 B68(3) <= 31
 c107: 43 B10(13) + I58(17) - 71000 B71(3) >= -70983
 c108: 43 B10(13) + I58(17) - 71000 B71(3) <= 17
 c109: 37 B11(13) + I59(17) - 71000 B72(3) >= -70983
 c110: 37 B11(13) + I59(17) - 71000 B72(3) <= 17
 c111: - I50(17) - I51(17) - I54(17) - I55(17) - I58(17) - I59(17) + I60(1)
   - 30 B63(3) - 37 B64(3) - 5 B67(3) + 10 B68(3) - 26 B71(3) - 20 B72(3)
   >= 0
Bounds
Binaries
 B0(13) B1(13) B2(13) B3(13) B4(14) B5(14) B6(14) B7(14) B8(13) B9(13)
 B10(13) B11(13) B12(0) B13(0) B14(4) B15(4) B16(4) B17(4) B18(0) B19(0)
 B20(4) B21(4) B22(4) B23(4) B24(0) B25(0) B26(0) B27(0) B28(4) B29(4)
 B30(0) B31(0) B32(0) B33(0) B34(4) B35(4) B36(0) B37(0) B38(0) B39(0)
 B40(0) B41(0) B42(0) B43(0) B44(0) B45(0) B46(0) B47(0) B61(0) B62(0)
 B63(3) B64(3) B65(0) B66(0) B67(3) B68(3) B69(0) B70(0) B71(3) B72(3)
Generals
 I48(14) I49(14) I50(17) I51(17) I52(14) I53(14) I54(17) I55(17) I56(14)
 I57(14) I58(17) I59(17) I60(1)
End
